
Gurobi 10.0.1 (win64) logging started Thu Jul 13 17:26:08 2023

Set parameter LogFile to value "results/log/FTQL_makespan.log"
Gurobi Optimizer version 10.0.1 build v10.0.1rc0 (win64)

CPU model: AMD Ryzen 7 3700X 8-Core Processor, instruction set [SSE2|AVX|AVX2]
Thread count: 8 physical cores, 16 logical processors, using up to 16 threads

Optimize a model with 195 rows, 395 columns and 702 nonzeros
Model fingerprint: 0x71c12e63
Variable types: 0 continuous, 395 integer (370 binary)
Coefficient statistics:
  Matrix range     [1e+00, 1e+08]
  Objective range  [1e+00, 1e+00]
  Bounds range     [1e+00, 1e+00]
  RHS range        [1e+00, 3e+08]
Presolve removed 78 rows and 322 columns
Presolve time: 0.00s
Presolved: 117 rows, 73 columns, 332 nonzeros
Variable types: 0 continuous, 73 integer (49 binary)
Root relaxation presolved: 117 rows, 73 columns, 332 nonzeros


Root relaxation: objective 1.569600e+05, 37 iterations, 0.00 seconds (0.00 work units)

    Nodes    |    Current Node    |     Objective Bounds      |     Work
 Expl Unexpl |  Obj  Depth IntInf | Incumbent    BestBd   Gap | It/Node Time

     0     0 156960.000    0   27          - 156960.000      -     -    0s
H    0     0                    293227.00000 156960.000  46.5%     -    0s
H    0     0                    288181.00000 156960.000  45.5%     -    0s
H    0     0                    278091.00000 156960.000  43.6%     -    0s
H    0     0                    273091.00000 156960.000  42.5%     -    0s
H    0     0                    265119.00000 156960.000  40.8%     -    0s
H    0     0                    250942.00000 163176.000  35.0%     -    0s
     0     0 216511.237    0   32 250942.000 216511.237  13.7%     -    0s
     0     0 222926.032    0   44 250942.000 222926.032  11.2%     -    0s
     0     0 222926.032    0   33 250942.000 222926.032  11.2%     -    0s
     0     0 222926.032    0   34 250942.000 222926.032  11.2%     -    0s
     0     0 223130.652    0   35 250942.000 223130.652  11.1%     -    0s
     0     0 223130.652    0   35 250942.000 223130.652  11.1%     -    0s
     0     0 224169.560    0   36 250942.000 224169.560  10.7%     -    0s
H    0     0                    250662.00000 224169.560  10.6%     -    0s
     0     0 224169.560    0   37 250662.000 224169.560  10.6%     -    0s
     0     0 224495.492    0   41 250662.000 224495.492  10.4%     -    0s
     0     0 224645.650    0   37 250662.000 224645.650  10.4%     -    0s
     0     0 225099.947    0   43 250662.000 225099.947  10.2%     -    0s
     0     0 225099.947    0   44 250662.000 225099.947  10.2%     -    0s
     0     0 225099.947    0   44 250662.000 225099.947  10.2%     -    0s
     0     0 227366.032    0   42 250662.000 227366.032  9.29%     -    0s
     0     0 227366.032    0   45 250662.000 227366.032  9.29%     -    0s
     0     0 229482.823    0   46 250662.000 229482.823  8.45%     -    0s
     0     0 229608.161    0   45 250662.000 229608.161  8.40%     -    0s
     0     0 230183.869    0   46 250662.000 230183.869  8.17%     -    0s
     0     0 230271.000    0   44 250662.000 230271.000  8.13%     -    0s
     0     2 230271.000    0   43 250662.000 230271.000  8.13%     -    0s

Cutting planes:
  Gomory: 2
  Implied bound: 41
  MIR: 21
  Flow cover: 159
  Zero half: 15
  RLT: 7
  Relax-and-lift: 65

Explored 1169 nodes (15246 simplex iterations) in 0.24 seconds (0.14 work units)
Thread count was 16 (of 16 available processors)

Solution count 7: 250662 250942 265119 ... 293227

Optimal solution found (tolerance 1.00e-04)
Best objective 2.506620000000e+05, best bound 2.506620000000e+05, gap 0.0000%
Warning: constraint name "precedence between 1,1 to 0,0 if x_[j,l,h,z,i]=1" has a space
Warning: constraint name "precedence between 1,1 to 0,0 if x_[j,l,h,z,i]=1" has a space
Warning: default constraint names used to write mps file
